c Sudoku solution
p cnf 729 0
163 0
182 0
244 0
296 0
327 0
334 0
345 0
366 0
393 0
425 0
438 0
483 0
511 0
548 0
577 0
622 0
684 0
747 0
791 0
815 0
846 0
854 0
872 0
928 0
931 0
861 0
965 0
976 0
773 0
994 0
785 0
174 0
586 0
669 0
823 0
221 0
381 0
149 0
151 0
197 0
275 0
135 0
118 0
126 0
358 0
288 0
379 0
239 0
213 0
312 0
732 0
716 0
724 0
768 0
759 0
414 0
529 0
533 0
564 0
456 0
467 0
617 0
636 0
919 0
837 0
987 0
257 0
262 0
678 0
471 0
695 0
592 0
499 0
442 0
641 0
555 0
653 0
943 0
952 0
889 0
898 0
